lps/t20200302_ID000M003J005_ZintTrue_minla_fav.lp
\ This file has been generated by DOcplex
\ ENCODING=ISO-8859-1
\Problem name: minla_fav

Minimize
 obj: cmax
Subject To
 c1: x_1_0 - x_0_0 >= 1
 c2: x_2_0 - x_1_0 >= 3
 c3: x_0_1 - x_1_1 >= 8
 c4: x_2_1 - x_0_1 >= 5
 c5: x_2_2 - x_0_2 >= 5
 c6: x_1_2 - x_2_2 >= 4
 c7: x_0_3 - x_2_3 >= 4
 c8: x_1_3 - x_0_3 >= 10
 c9: x_2_4 - x_1_4 >= 8
 c10: x_0_4 - x_2_4 >= 3
 c11: x_0_0 - x_0_1 + 84 z_0_0_1 - 5 s_0_2_0_1 - 10 s_0_3_0_1 - 7 s_0_4_0_1 >= 
      5
 c12: x_0_1 - x_0_0 - 84 z_0_0_1 - 5 s_0_2_0_1 - 10 s_0_3_0_1 - 7 s_0_4_0_1 >= 
      -83
 c13: x_0_0 - x_0_2 + 84 z_0_0_2 - 5 s_0_1_0_2 - 10 s_0_3_0_2 - 7 s_0_4_0_2 >= 
      5
 c14: x_0_2 - x_0_0 - 84 z_0_0_2 - 5 s_0_1_0_2 - 10 s_0_3_0_2 - 7 s_0_4_0_2 >= 
      -83
 c15: x_0_0 - x_0_3 + 84 z_0_0_3 - 5 s_0_1_0_3 - 5 s_0_2_0_3 - 7 s_0_4_0_3 >= 
      10
 c16: x_0_3 - x_0_0 - 84 z_0_0_3 - 5 s_0_1_0_3 - 5 s_0_2_0_3 - 7 s_0_4_0_3 >= 
      -83
 c17: x_0_0 - x_0_4 + 84 z_0_0_4 - 5 s_0_1_0_4 - 5 s_0_2_0_4 - 10 s_0_3_0_4 >= 
      7
 c18: x_0_4 - x_0_0 - 84 z_0_0_4 - 5 s_0_1_0_4 - 5 s_0_2_0_4 - 10 s_0_3_0_4 >= 
      -83
 c19: x_0_1 - x_0_2 + 84 z_0_1_2 - s_0_0_1_2 - 10 s_0_3_1_2 - 7 s_0_4_1_2 >= 5
 c20: x_0_2 - x_0_1 - 84 z_0_1_2 - s_0_0_1_2 - 10 s_0_3_1_2 - 7 s_0_4_1_2 >= 
      -79
 c21: x_0_1 - x_0_3 + 84 z_0_1_3 - s_0_0_1_3 - 5 s_0_2_1_3 - 7 s_0_4_1_3 >= 10
 c22: x_0_3 - x_0_1 - 84 z_0_1_3 - s_0_0_1_3 - 5 s_0_2_1_3 - 7 s_0_4_1_3 >= -79
 c23: x_0_1 - x_0_4 + 84 z_0_1_4 - s_0_0_1_4 - 5 s_0_2_1_4 - 10 s_0_3_1_4 >= 7
 c24: x_0_4 - x_0_1 - 84 z_0_1_4 - s_0_0_1_4 - 5 s_0_2_1_4 - 10 s_0_3_1_4 >= 
      -79
 c25: x_0_2 - x_0_3 + 84 z_0_2_3 - s_0_0_2_3 - 5 s_0_1_2_3 - 7 s_0_4_2_3 >= 10
 c26: x_0_3 - x_0_2 - 84 z_0_2_3 - s_0_0_2_3 - 5 s_0_1_2_3 - 7 s_0_4_2_3 >= -79
 c27: x_0_2 - x_0_4 + 84 z_0_2_4 - s_0_0_2_4 - 5 s_0_1_2_4 - 10 s_0_3_2_4 >= 7
 c28: x_0_4 - x_0_2 - 84 z_0_2_4 - s_0_0_2_4 - 5 s_0_1_2_4 - 10 s_0_3_2_4 >= 
      -79
 c29: x_0_3 - x_0_4 + 84 z_0_3_4 - s_0_0_3_4 - 5 s_0_1_3_4 - 5 s_0_2_3_4 >= 7
 c30: x_0_4 - x_0_3 - 84 z_0_3_4 - s_0_0_3_4 - 5 s_0_1_3_4 - 5 s_0_2_3_4 >= -74
 c31: x_1_0 - x_1_1 + 84 z_1_0_1 - 8 s_1_2_0_1 - 6 s_1_3_0_1 - 8 s_1_4_0_1 >= 8
 c32: x_1_1 - x_1_0 - 84 z_1_0_1 - 8 s_1_2_0_1 - 6 s_1_3_0_1 - 8 s_1_4_0_1 >= 
      -81
 c33: x_1_0 - x_1_2 + 84 z_1_0_2 - 8 s_1_1_0_2 - 6 s_1_3_0_2 - 8 s_1_4_0_2 >= 8
 c34: x_1_2 - x_1_0 - 84 z_1_0_2 - 8 s_1_1_0_2 - 6 s_1_3_0_2 - 8 s_1_4_0_2 >= 
      -81
 c35: x_1_0 - x_1_3 + 84 z_1_0_3 - 8 s_1_1_0_3 - 8 s_1_2_0_3 - 8 s_1_4_0_3 >= 6
 c36: x_1_3 - x_1_0 - 84 z_1_0_3 - 8 s_1_1_0_3 - 8 s_1_2_0_3 - 8 s_1_4_0_3 >= 
      -81
 c37: x_1_0 - x_1_4 + 84 z_1_0_4 - 8 s_1_1_0_4 - 8 s_1_2_0_4 - 6 s_1_3_0_4 >= 8
 c38: x_1_4 - x_1_0 - 84 z_1_0_4 - 8 s_1_1_0_4 - 8 s_1_2_0_4 - 6 s_1_3_0_4 >= 
      -81
 c39: x_1_1 - x_1_2 + 84 z_1_1_2 - 3 s_1_0_1_2 - 6 s_1_3_1_2 - 8 s_1_4_1_2 >= 8
 c40: x_1_2 - x_1_1 - 84 z_1_1_2 - 3 s_1_0_1_2 - 6 s_1_3_1_2 - 8 s_1_4_1_2 >= 
      -76
 c41: x_1_1 - x_1_3 + 84 z_1_1_3 - 3 s_1_0_1_3 - 8 s_1_2_1_3 - 8 s_1_4_1_3 >= 6
 c42: x_1_3 - x_1_1 - 84 z_1_1_3 - 3 s_1_0_1_3 - 8 s_1_2_1_3 - 8 s_1_4_1_3 >= 
      -76
 c43: x_1_1 - x_1_4 + 84 z_1_1_4 - 3 s_1_0_1_4 - 8 s_1_2_1_4 - 6 s_1_3_1_4 >= 8
 c44: x_1_4 - x_1_1 - 84 z_1_1_4 - 3 s_1_0_1_4 - 8 s_1_2_1_4 - 6 s_1_3_1_4 >= 
      -76
 c45: x_1_2 - x_1_3 + 84 z_1_2_3 - 3 s_1_0_2_3 - 8 s_1_1_2_3 - 8 s_1_4_2_3 >= 6
 c46: x_1_3 - x_1_2 - 84 z_1_2_3 - 3 s_1_0_2_3 - 8 s_1_1_2_3 - 8 s_1_4_2_3 >= 
      -76
 c47: x_1_2 - x_1_4 + 84 z_1_2_4 - 3 s_1_0_2_4 - 8 s_1_1_2_4 - 6 s_1_3_2_4 >= 8
 c48: x_1_4 - x_1_2 - 84 z_1_2_4 - 3 s_1_0_2_4 - 8 s_1_1_2_4 - 6 s_1_3_2_4 >= 
      -76
 c49: x_1_3 - x_1_4 + 84 z_1_3_4 - 3 s_1_0_3_4 - 8 s_1_1_3_4 - 8 s_1_2_3_4 >= 8
 c50: x_1_4 - x_1_3 - 84 z_1_3_4 - 3 s_1_0_3_4 - 8 s_1_1_3_4 - 8 s_1_2_3_4 >= 
      -78
 c51: x_2_0 - x_2_1 + 84 z_2_0_1 - 4 s_2_2_0_1 - 4 s_2_3_0_1 - 3 s_2_4_0_1 >= 
      10
 c52: x_2_1 - x_2_0 - 84 z_2_0_1 - 4 s_2_2_0_1 - 4 s_2_3_0_1 - 3 s_2_4_0_1 >= 
      -82
 c53: x_2_0 - x_2_2 + 84 z_2_0_2 - 10 s_2_1_0_2 - 4 s_2_3_0_2 - 3 s_2_4_0_2 >= 
      4
 c54: x_2_2 - x_2_0 - 84 z_2_0_2 - 10 s_2_1_0_2 - 4 s_2_3_0_2 - 3 s_2_4_0_2 >= 
      -82
 c55: x_2_0 - x_2_3 + 84 z_2_0_3 - 10 s_2_1_0_3 - 4 s_2_2_0_3 - 3 s_2_4_0_3 >= 
      4
 c56: x_2_3 - x_2_0 - 84 z_2_0_3 - 10 s_2_1_0_3 - 4 s_2_2_0_3 - 3 s_2_4_0_3 >= 
      -82
 c57: x_2_0 - x_2_4 + 84 z_2_0_4 - 10 s_2_1_0_4 - 4 s_2_2_0_4 - 4 s_2_3_0_4 >= 
      3
 c58: x_2_4 - x_2_0 - 84 z_2_0_4 - 10 s_2_1_0_4 - 4 s_2_2_0_4 - 4 s_2_3_0_4 >= 
      -82
 c59: x_2_1 - x_2_2 + 84 z_2_1_2 - 2 s_2_0_1_2 - 4 s_2_3_1_2 - 3 s_2_4_1_2 >= 4
 c60: x_2_2 - x_2_1 - 84 z_2_1_2 - 2 s_2_0_1_2 - 4 s_2_3_1_2 - 3 s_2_4_1_2 >= 
      -74
 c61: x_2_1 - x_2_3 + 84 z_2_1_3 - 2 s_2_0_1_3 - 4 s_2_2_1_3 - 3 s_2_4_1_3 >= 4
 c62: x_2_3 - x_2_1 - 84 z_2_1_3 - 2 s_2_0_1_3 - 4 s_2_2_1_3 - 3 s_2_4_1_3 >= 
      -74
 c63: x_2_1 - x_2_4 + 84 z_2_1_4 - 2 s_2_0_1_4 - 4 s_2_2_1_4 - 4 s_2_3_1_4 >= 3
 c64: x_2_4 - x_2_1 - 84 z_2_1_4 - 2 s_2_0_1_4 - 4 s_2_2_1_4 - 4 s_2_3_1_4 >= 
      -74
 c65: x_2_2 - x_2_3 + 84 z_2_2_3 - 2 s_2_0_2_3 - 10 s_2_1_2_3 - 3 s_2_4_2_3 >= 
      4
 c66: x_2_3 - x_2_2 - 84 z_2_2_3 - 2 s_2_0_2_3 - 10 s_2_1_2_3 - 3 s_2_4_2_3 >= 
      -80
 c67: x_2_2 - x_2_4 + 84 z_2_2_4 - 2 s_2_0_2_4 - 10 s_2_1_2_4 - 4 s_2_3_2_4 >= 
      3
 c68: x_2_4 - x_2_2 - 84 z_2_2_4 - 2 s_2_0_2_4 - 10 s_2_1_2_4 - 4 s_2_3_2_4 >= 
      -80
 c69: x_2_3 - x_2_4 + 84 z_2_3_4 - 2 s_2_0_3_4 - 10 s_2_1_3_4 - 4 s_2_2_3_4 >= 
      3
 c70: x_2_4 - x_2_3 - 84 z_2_3_4 - 2 s_2_0_3_4 - 10 s_2_1_3_4 - 4 s_2_2_3_4 >= 
      -80
 c71: s_0_2_0_1 - z_0_0_1 - z_0_0_2 + z_0_1_2 >= -1
 c72: s_0_2_0_1 + z_0_0_1 + z_0_0_2 - z_0_1_2 >= 0
 c73: s_0_3_0_1 - z_0_0_1 - z_0_0_3 + z_0_1_3 >= -1
 c74: s_0_3_0_1 + z_0_0_1 + z_0_0_3 - z_0_1_3 >= 0
 c75: s_0_4_0_1 - z_0_0_1 - z_0_0_4 + z_0_1_4 >= -1
 c76: s_0_4_0_1 + z_0_0_1 + z_0_0_4 - z_0_1_4 >= 0
 c77: s_0_1_0_2 - z_0_0_1 - z_0_0_2 - z_0_1_2 >= -2
 c78: s_0_1_0_2 + z_0_0_1 + z_0_0_2 + z_0_1_2 >= 1
 c79: s_0_3_0_2 - z_0_0_2 - z_0_0_3 + z_0_2_3 >= -1
 c80: s_0_3_0_2 + z_0_0_2 + z_0_0_3 - z_0_2_3 >= 0
 c81: s_0_4_0_2 - z_0_0_2 - z_0_0_4 + z_0_2_4 >= -1
 c82: s_0_4_0_2 + z_0_0_2 + z_0_0_4 - z_0_2_4 >= 0
 c83: s_0_1_0_3 - z_0_0_1 - z_0_0_3 - z_0_1_3 >= -2
 c84: s_0_1_0_3 + z_0_0_1 + z_0_0_3 + z_0_1_3 >= 1
 c85: s_0_2_0_3 - z_0_0_2 - z_0_0_3 - z_0_2_3 >= -2
 c86: s_0_2_0_3 + z_0_0_2 + z_0_0_3 + z_0_2_3 >= 1
 c87: s_0_4_0_3 - z_0_0_3 - z_0_0_4 + z_0_3_4 >= -1
 c88: s_0_4_0_3 + z_0_0_3 + z_0_0_4 - z_0_3_4 >= 0
 c89: s_0_1_0_4 - z_0_0_1 - z_0_0_4 - z_0_1_4 >= -2
 c90: s_0_1_0_4 + z_0_0_1 + z_0_0_4 + z_0_1_4 >= 1
 c91: s_0_2_0_4 - z_0_0_2 - z_0_0_4 - z_0_2_4 >= -2
 c92: s_0_2_0_4 + z_0_0_2 + z_0_0_4 + z_0_2_4 >= 1
 c93: s_0_3_0_4 - z_0_0_3 - z_0_0_4 - z_0_3_4 >= -2
 c94: s_0_3_0_4 + z_0_0_3 + z_0_0_4 + z_0_3_4 >= 1
 c95: s_0_0_1_2 + z_0_0_1 - z_0_0_2 - z_0_1_2 >= -1
 c96: s_0_0_1_2 - z_0_0_1 + z_0_0_2 + z_0_1_2 >= 0
 c97: s_0_3_1_2 - z_0_1_2 - z_0_1_3 + z_0_2_3 >= -1
 c98: s_0_3_1_2 + z_0_1_2 + z_0_1_3 - z_0_2_3 >= 0
 c99: s_0_4_1_2 - z_0_1_2 - z_0_1_4 + z_0_2_4 >= -1
 c100: s_0_4_1_2 + z_0_1_2 + z_0_1_4 - z_0_2_4 >= 0
 c101: s_0_0_1_3 + z_0_0_1 - z_0_0_3 - z_0_1_3 >= -1
 c102: s_0_0_1_3 - z_0_0_1 + z_0_0_3 + z_0_1_3 >= 0
 c103: s_0_2_1_3 - z_0_1_2 - z_0_1_3 - z_0_2_3 >= -2
 c104: s_0_2_1_3 + z_0_1_2 + z_0_1_3 + z_0_2_3 >= 1
 c105: s_0_4_1_3 - z_0_1_3 - z_0_1_4 + z_0_3_4 >= -1
 c106: s_0_4_1_3 + z_0_1_3 + z_0_1_4 - z_0_3_4 >= 0
 c107: s_0_0_1_4 + z_0_0_1 - z_0_0_4 - z_0_1_4 >= -1
 c108: s_0_0_1_4 - z_0_0_1 + z_0_0_4 + z_0_1_4 >= 0
 c109: s_0_2_1_4 - z_0_1_2 - z_0_1_4 - z_0_2_4 >= -2
 c110: s_0_2_1_4 + z_0_1_2 + z_0_1_4 + z_0_2_4 >= 1
 c111: s_0_3_1_4 - z_0_1_3 - z_0_1_4 - z_0_3_4 >= -2
 c112: s_0_3_1_4 + z_0_1_3 + z_0_1_4 + z_0_3_4 >= 1
 c113: s_0_0_2_3 + z_0_0_2 - z_0_0_3 - z_0_2_3 >= -1
 c114: s_0_0_2_3 - z_0_0_2 + z_0_0_3 + z_0_2_3 >= 0
 c115: s_0_1_2_3 + z_0_1_2 - z_0_1_3 - z_0_2_3 >= -1
 c116: s_0_1_2_3 - z_0_1_2 + z_0_1_3 + z_0_2_3 >= 0
 c117: s_0_4_2_3 - z_0_2_3 - z_0_2_4 + z_0_3_4 >= -1
 c118: s_0_4_2_3 + z_0_2_3 + z_0_2_4 - z_0_3_4 >= 0
 c119: s_0_0_2_4 + z_0_0_2 - z_0_0_4 - z_0_2_4 >= -1
 c120: s_0_0_2_4 - z_0_0_2 + z_0_0_4 + z_0_2_4 >= 0
 c121: s_0_1_2_4 + z_0_1_2 - z_0_1_4 - z_0_2_4 >= -1
 c122: s_0_1_2_4 - z_0_1_2 + z_0_1_4 + z_0_2_4 >= 0
 c123: s_0_3_2_4 - z_0_2_3 - z_0_2_4 - z_0_3_4 >= -2
 c124: s_0_3_2_4 + z_0_2_3 + z_0_2_4 + z_0_3_4 >= 1
 c125: s_0_0_3_4 + z_0_0_3 - z_0_0_4 - z_0_3_4 >= -1
 c126: s_0_0_3_4 - z_0_0_3 + z_0_0_4 + z_0_3_4 >= 0
 c127: s_0_1_3_4 + z_0_1_3 - z_0_1_4 - z_0_3_4 >= -1
 c128: s_0_1_3_4 - z_0_1_3 + z_0_1_4 + z_0_3_4 >= 0
 c129: s_0_2_3_4 + z_0_2_3 - z_0_2_4 - z_0_3_4 >= -1
 c130: s_0_2_3_4 - z_0_2_3 + z_0_2_4 + z_0_3_4 >= 0
 c131: s_1_2_0_1 - z_1_0_1 - z_1_0_2 + z_1_1_2 >= -1
 c132: s_1_2_0_1 + z_1_0_1 + z_1_0_2 - z_1_1_2 >= 0
 c133: s_1_3_0_1 - z_1_0_1 - z_1_0_3 + z_1_1_3 >= -1
 c134: s_1_3_0_1 + z_1_0_1 + z_1_0_3 - z_1_1_3 >= 0
 c135: s_1_4_0_1 - z_1_0_1 - z_1_0_4 + z_1_1_4 >= -1
 c136: s_1_4_0_1 + z_1_0_1 + z_1_0_4 - z_1_1_4 >= 0
 c137: s_1_1_0_2 - z_1_0_1 - z_1_0_2 - z_1_1_2 >= -2
 c138: s_1_1_0_2 + z_1_0_1 + z_1_0_2 + z_1_1_2 >= 1
 c139: s_1_3_0_2 - z_1_0_2 - z_1_0_3 + z_1_2_3 >= -1
 c140: s_1_3_0_2 + z_1_0_2 + z_1_0_3 - z_1_2_3 >= 0
 c141: s_1_4_0_2 - z_1_0_2 - z_1_0_4 + z_1_2_4 >= -1
 c142: s_1_4_0_2 + z_1_0_2 + z_1_0_4 - z_1_2_4 >= 0
 c143: s_1_1_0_3 - z_1_0_1 - z_1_0_3 - z_1_1_3 >= -2
 c144: s_1_1_0_3 + z_1_0_1 + z_1_0_3 + z_1_1_3 >= 1
 c145: s_1_2_0_3 - z_1_0_2 - z_1_0_3 - z_1_2_3 >= -2
 c146: s_1_2_0_3 + z_1_0_2 + z_1_0_3 + z_1_2_3 >= 1
 c147: s_1_4_0_3 - z_1_0_3 - z_1_0_4 + z_1_3_4 >= -1
 c148: s_1_4_0_3 + z_1_0_3 + z_1_0_4 - z_1_3_4 >= 0
 c149: s_1_1_0_4 - z_1_0_1 - z_1_0_4 - z_1_1_4 >= -2
 c150: s_1_1_0_4 + z_1_0_1 + z_1_0_4 + z_1_1_4 >= 1
 c151: s_1_2_0_4 - z_1_0_2 - z_1_0_4 - z_1_2_4 >= -2
 c152: s_1_2_0_4 + z_1_0_2 + z_1_0_4 + z_1_2_4 >= 1
 c153: s_1_3_0_4 - z_1_0_3 - z_1_0_4 - z_1_3_4 >= -2
 c154: s_1_3_0_4 + z_1_0_3 + z_1_0_4 + z_1_3_4 >= 1
 c155: s_1_0_1_2 + z_1_0_1 - z_1_0_2 - z_1_1_2 >= -1
 c156: s_1_0_1_2 - z_1_0_1 + z_1_0_2 + z_1_1_2 >= 0
 c157: s_1_3_1_2 - z_1_1_2 - z_1_1_3 + z_1_2_3 >= -1
 c158: s_1_3_1_2 + z_1_1_2 + z_1_1_3 - z_1_2_3 >= 0
 c159: s_1_4_1_2 - z_1_1_2 - z_1_1_4 + z_1_2_4 >= -1
 c160: s_1_4_1_2 + z_1_1_2 + z_1_1_4 - z_1_2_4 >= 0
 c161: s_1_0_1_3 + z_1_0_1 - z_1_0_3 - z_1_1_3 >= -1
 c162: s_1_0_1_3 - z_1_0_1 + z_1_0_3 + z_1_1_3 >= 0
 c163: s_1_2_1_3 - z_1_1_2 - z_1_1_3 - z_1_2_3 >= -2
 c164: s_1_2_1_3 + z_1_1_2 + z_1_1_3 + z_1_2_3 >= 1
 c165: s_1_4_1_3 - z_1_1_3 - z_1_1_4 + z_1_3_4 >= -1
 c166: s_1_4_1_3 + z_1_1_3 + z_1_1_4 - z_1_3_4 >= 0
 c167: s_1_0_1_4 + z_1_0_1 - z_1_0_4 - z_1_1_4 >= -1
 c168: s_1_0_1_4 - z_1_0_1 + z_1_0_4 + z_1_1_4 >= 0
 c169: s_1_2_1_4 - z_1_1_2 - z_1_1_4 - z_1_2_4 >= -2
 c170: s_1_2_1_4 + z_1_1_2 + z_1_1_4 + z_1_2_4 >= 1
 c171: s_1_3_1_4 - z_1_1_3 - z_1_1_4 - z_1_3_4 >= -2
 c172: s_1_3_1_4 + z_1_1_3 + z_1_1_4 + z_1_3_4 >= 1
 c173: s_1_0_2_3 + z_1_0_2 - z_1_0_3 - z_1_2_3 >= -1
 c174: s_1_0_2_3 - z_1_0_2 + z_1_0_3 + z_1_2_3 >= 0
 c175: s_1_1_2_3 + z_1_1_2 - z_1_1_3 - z_1_2_3 >= -1
 c176: s_1_1_2_3 - z_1_1_2 + z_1_1_3 + z_1_2_3 >= 0
 c177: s_1_4_2_3 - z_1_2_3 - z_1_2_4 + z_1_3_4 >= -1
 c178: s_1_4_2_3 + z_1_2_3 + z_1_2_4 - z_1_3_4 >= 0
 c179: s_1_0_2_4 + z_1_0_2 - z_1_0_4 - z_1_2_4 >= -1
 c180: s_1_0_2_4 - z_1_0_2 + z_1_0_4 + z_1_2_4 >= 0
 c181: s_1_1_2_4 + z_1_1_2 - z_1_1_4 - z_1_2_4 >= -1
 c182: s_1_1_2_4 - z_1_1_2 + z_1_1_4 + z_1_2_4 >= 0
 c183: s_1_3_2_4 - z_1_2_3 - z_1_2_4 - z_1_3_4 >= -2
 c184: s_1_3_2_4 + z_1_2_3 + z_1_2_4 + z_1_3_4 >= 1
 c185: s_1_0_3_4 + z_1_0_3 - z_1_0_4 - z_1_3_4 >= -1
 c186: s_1_0_3_4 - z_1_0_3 + z_1_0_4 + z_1_3_4 >= 0
 c187: s_1_1_3_4 + z_1_1_3 - z_1_1_4 - z_1_3_4 >= -1
 c188: s_1_1_3_4 - z_1_1_3 + z_1_1_4 + z_1_3_4 >= 0
 c189: s_1_2_3_4 + z_1_2_3 - z_1_2_4 - z_1_3_4 >= -1
 c190: s_1_2_3_4 - z_1_2_3 + z_1_2_4 + z_1_3_4 >= 0
 c191: s_2_2_0_1 - z_2_0_1 - z_2_0_2 + z_2_1_2 >= -1
 c192: s_2_2_0_1 + z_2_0_1 + z_2_0_2 - z_2_1_2 >= 0
 c193: s_2_3_0_1 - z_2_0_1 - z_2_0_3 + z_2_1_3 >= -1
 c194: s_2_3_0_1 + z_2_0_1 + z_2_0_3 - z_2_1_3 >= 0
 c195: s_2_4_0_1 - z_2_0_1 - z_2_0_4 + z_2_1_4 >= -1
 c196: s_2_4_0_1 + z_2_0_1 + z_2_0_4 - z_2_1_4 >= 0
 c197: s_2_1_0_2 - z_2_0_1 - z_2_0_2 - z_2_1_2 >= -2
 c198: s_2_1_0_2 + z_2_0_1 + z_2_0_2 + z_2_1_2 >= 1
 c199: s_2_3_0_2 - z_2_0_2 - z_2_0_3 + z_2_2_3 >= -1
 c200: s_2_3_0_2 + z_2_0_2 + z_2_0_3 - z_2_2_3 >= 0
 c201: s_2_4_0_2 - z_2_0_2 - z_2_0_4 + z_2_2_4 >= -1
 c202: s_2_4_0_2 + z_2_0_2 + z_2_0_4 - z_2_2_4 >= 0
 c203: s_2_1_0_3 - z_2_0_1 - z_2_0_3 - z_2_1_3 >= -2
 c204: s_2_1_0_3 + z_2_0_1 + z_2_0_3 + z_2_1_3 >= 1
 c205: s_2_2_0_3 - z_2_0_2 - z_2_0_3 - z_2_2_3 >= -2
 c206: s_2_2_0_3 + z_2_0_2 + z_2_0_3 + z_2_2_3 >= 1
 c207: s_2_4_0_3 - z_2_0_3 - z_2_0_4 + z_2_3_4 >= -1
 c208: s_2_4_0_3 + z_2_0_3 + z_2_0_4 - z_2_3_4 >= 0
 c209: s_2_1_0_4 - z_2_0_1 - z_2_0_4 - z_2_1_4 >= -2
 c210: s_2_1_0_4 + z_2_0_1 + z_2_0_4 + z_2_1_4 >= 1
 c211: s_2_2_0_4 - z_2_0_2 - z_2_0_4 - z_2_2_4 >= -2
 c212: s_2_2_0_4 + z_2_0_2 + z_2_0_4 + z_2_2_4 >= 1
 c213: s_2_3_0_4 - z_2_0_3 - z_2_0_4 - z_2_3_4 >= -2
 c214: s_2_3_0_4 + z_2_0_3 + z_2_0_4 + z_2_3_4 >= 1
 c215: s_2_0_1_2 + z_2_0_1 - z_2_0_2 - z_2_1_2 >= -1
 c216: s_2_0_1_2 - z_2_0_1 + z_2_0_2 + z_2_1_2 >= 0
 c217: s_2_3_1_2 - z_2_1_2 - z_2_1_3 + z_2_2_3 >= -1
 c218: s_2_3_1_2 + z_2_1_2 + z_2_1_3 - z_2_2_3 >= 0
 c219: s_2_4_1_2 - z_2_1_2 - z_2_1_4 + z_2_2_4 >= -1
 c220: s_2_4_1_2 + z_2_1_2 + z_2_1_4 - z_2_2_4 >= 0
 c221: s_2_0_1_3 + z_2_0_1 - z_2_0_3 - z_2_1_3 >= -1
 c222: s_2_0_1_3 - z_2_0_1 + z_2_0_3 + z_2_1_3 >= 0
 c223: s_2_2_1_3 - z_2_1_2 - z_2_1_3 - z_2_2_3 >= -2
 c224: s_2_2_1_3 + z_2_1_2 + z_2_1_3 + z_2_2_3 >= 1
 c225: s_2_4_1_3 - z_2_1_3 - z_2_1_4 + z_2_3_4 >= -1
 c226: s_2_4_1_3 + z_2_1_3 + z_2_1_4 - z_2_3_4 >= 0
 c227: s_2_0_1_4 + z_2_0_1 - z_2_0_4 - z_2_1_4 >= -1
 c228: s_2_0_1_4 - z_2_0_1 + z_2_0_4 + z_2_1_4 >= 0
 c229: s_2_2_1_4 - z_2_1_2 - z_2_1_4 - z_2_2_4 >= -2
 c230: s_2_2_1_4 + z_2_1_2 + z_2_1_4 + z_2_2_4 >= 1
 c231: s_2_3_1_4 - z_2_1_3 - z_2_1_4 - z_2_3_4 >= -2
 c232: s_2_3_1_4 + z_2_1_3 + z_2_1_4 + z_2_3_4 >= 1
 c233: s_2_0_2_3 + z_2_0_2 - z_2_0_3 - z_2_2_3 >= -1
 c234: s_2_0_2_3 - z_2_0_2 + z_2_0_3 + z_2_2_3 >= 0
 c235: s_2_1_2_3 + z_2_1_2 - z_2_1_3 - z_2_2_3 >= -1
 c236: s_2_1_2_3 - z_2_1_2 + z_2_1_3 + z_2_2_3 >= 0
 c237: s_2_4_2_3 - z_2_2_3 - z_2_2_4 + z_2_3_4 >= -1
 c238: s_2_4_2_3 + z_2_2_3 + z_2_2_4 - z_2_3_4 >= 0
 c239: s_2_0_2_4 + z_2_0_2 - z_2_0_4 - z_2_2_4 >= -1
 c240: s_2_0_2_4 - z_2_0_2 + z_2_0_4 + z_2_2_4 >= 0
 c241: s_2_1_2_4 + z_2_1_2 - z_2_1_4 - z_2_2_4 >= -1
 c242: s_2_1_2_4 - z_2_1_2 + z_2_1_4 + z_2_2_4 >= 0
 c243: s_2_3_2_4 - z_2_2_3 - z_2_2_4 - z_2_3_4 >= -2
 c244: s_2_3_2_4 + z_2_2_3 + z_2_2_4 + z_2_3_4 >= 1
 c245: s_2_0_3_4 + z_2_0_3 - z_2_0_4 - z_2_3_4 >= -1
 c246: s_2_0_3_4 - z_2_0_3 + z_2_0_4 + z_2_3_4 >= 0
 c247: s_2_1_3_4 + z_2_1_3 - z_2_1_4 - z_2_3_4 >= -1
 c248: s_2_1_3_4 - z_2_1_3 + z_2_1_4 + z_2_3_4 >= 0
 c249: s_2_2_3_4 + z_2_2_3 - z_2_2_4 - z_2_3_4 >= -1
 c250: s_2_2_3_4 - z_2_2_3 + z_2_2_4 + z_2_3_4 >= 0
 c251: x_0_0 + 5 z_0_0_1 + 5 z_0_0_2 + 10 z_0_0_3 + 7 z_0_0_4 >= 27
 c252: x_0_1 - z_0_0_1 + 5 z_0_1_2 + 10 z_0_1_3 + 7 z_0_1_4 >= 22
 c253: x_0_2 - z_0_0_2 - 5 z_0_1_2 + 10 z_0_2_3 + 7 z_0_2_4 >= 17
 c254: x_0_3 - z_0_0_3 - 5 z_0_1_3 - 5 z_0_2_3 + 7 z_0_3_4 >= 7
 c255: x_0_4 - z_0_0_4 - 5 z_0_1_4 - 5 z_0_2_4 - 10 z_0_3_4 >= 0
 c256: x_1_0 + 8 z_1_0_1 + 8 z_1_0_2 + 6 z_1_0_3 + 8 z_1_0_4 >= 30
 c257: x_1_1 - 3 z_1_0_1 + 8 z_1_1_2 + 6 z_1_1_3 + 8 z_1_1_4 >= 22
 c258: x_1_2 - 3 z_1_0_2 - 8 z_1_1_2 + 6 z_1_2_3 + 8 z_1_2_4 >= 14
 c259: x_1_3 - 3 z_1_0_3 - 8 z_1_1_3 - 8 z_1_2_3 + 8 z_1_3_4 >= 8
 c260: x_1_4 - 3 z_1_0_4 - 8 z_1_1_4 - 8 z_1_2_4 - 6 z_1_3_4 >= 0
 c261: x_2_0 + 10 z_2_0_1 + 4 z_2_0_2 + 4 z_2_0_3 + 3 z_2_0_4 >= 21
 c262: x_2_1 - 2 z_2_0_1 + 4 z_2_1_2 + 4 z_2_1_3 + 3 z_2_1_4 >= 11
 c263: x_2_2 - 2 z_2_0_2 - 10 z_2_1_2 + 4 z_2_2_3 + 3 z_2_2_4 >= 7
 c264: x_2_3 - 2 z_2_0_3 - 10 z_2_1_3 - 4 z_2_2_3 + 3 z_2_3_4 >= 3
 c265: x_2_4 - 2 z_2_0_4 - 10 z_2_1_4 - 4 z_2_2_4 - 4 z_2_3_4 >= 0
 c266: x_0_1 - z_0_0_1 >= 0
 c267: x_0_0 + 13 z_0_0_1 >= 13
 c268: x_0_2 - z_0_0_2 >= 0
 c269: x_0_0 + 5 z_0_0_2 >= 5
 c270: x_0_2 - 13 z_0_1_2 >= 0
 c271: x_0_1 + 5 z_0_1_2 >= 5
 c272: x_0_3 - z_0_0_3 >= 0
 c273: x_0_0 + 14 z_0_0_3 >= 14
 c274: x_0_3 - 13 z_0_1_3 >= 0
 c275: x_0_1 + 14 z_0_1_3 >= 14
 c276: x_0_3 - 5 z_0_2_3 >= 0
 c277: x_0_2 + 14 z_0_2_3 >= 14
 c278: x_0_4 - z_0_0_4 >= 0
 c279: x_0_0 + 18 z_0_0_4 >= 18
 c280: x_0_4 - 13 z_0_1_4 >= 0
 c281: x_0_1 + 18 z_0_1_4 >= 18
 c282: x_0_4 - 5 z_0_2_4 >= 0
 c283: x_0_2 + 18 z_0_2_4 >= 18
 c284: x_0_4 - 14 z_0_3_4 >= 0
 c285: x_0_3 + 18 z_0_3_4 >= 18
 c286: x_1_1 - 4 z_1_0_1 >= 0
 c287: x_1_0 + 8 z_1_0_1 >= 8
 c288: x_1_2 - 4 z_1_0_2 >= 0
 c289: x_1_0 + 17 z_1_0_2 >= 17
 c290: x_1_2 - 8 z_1_1_2 >= 0
 c291: x_1_1 + 17 z_1_1_2 >= 17
 c292: x_1_3 - 4 z_1_0_3 >= 0
 c293: x_1_0 + 20 z_1_0_3 >= 20
 c294: x_1_3 - 8 z_1_1_3 >= 0
 c295: x_1_1 + 20 z_1_1_3 >= 20
 c296: x_1_3 - 17 z_1_2_3 >= 0
 c297: x_1_2 + 20 z_1_2_3 >= 20
 c298: x_1_4 - 4 z_1_0_4 >= 0
 c299: x_1_0 + 8 z_1_0_4 >= 8
 c300: x_1_4 - 8 z_1_1_4 >= 0
 c301: x_1_1 + 8 z_1_1_4 >= 8
 c302: x_1_4 - 17 z_1_2_4 >= 0
 c303: x_1_2 + 8 z_1_2_4 >= 8
 c304: x_1_4 - 20 z_1_3_4 >= 0
 c305: x_1_3 + 8 z_1_3_4 >= 8
 c306: x_2_1 - 6 z_2_0_1 >= 0
 c307: x_2_0 + 23 z_2_0_1 >= 23
 c308: x_2_2 - 6 z_2_0_2 >= 0
 c309: x_2_0 + 9 z_2_0_2 >= 9
 c310: x_2_2 - 23 z_2_1_2 >= 0
 c311: x_2_1 + 9 z_2_1_2 >= 9
 c312: x_2_3 - 6 z_2_0_3 >= 0
 c313: x_2_0 + 4 z_2_0_3 >= 4
 c314: x_2_3 - 23 z_2_1_3 >= 0
 c315: x_2_1 + 4 z_2_1_3 >= 4
 c316: x_2_3 - 9 z_2_2_3 >= 0
 c317: x_2_2 + 4 z_2_2_3 >= 4
 c318: x_2_4 - 6 z_2_0_4 >= 0
 c319: x_2_0 + 11 z_2_0_4 >= 11
 c320: x_2_4 - 23 z_2_1_4 >= 0
 c321: x_2_1 + 11 z_2_1_4 >= 11
 c322: x_2_4 - 9 z_2_2_4 >= 0
 c323: x_2_2 + 11 z_2_2_4 >= 11
 c324: x_2_4 - 4 z_2_3_4 >= 0
 c325: x_2_3 + 11 z_2_3_4 >= 11
 c326: cmax - x_0_0 - 15 z_0_0_1 >= 1
 c327: cmax - x_0_1 + 6 z_0_0_1 >= 11
 c328: cmax - x_0_0 - 17 z_0_0_2 >= 1
 c329: cmax - x_0_2 + 6 z_0_0_2 >= 11
 c330: cmax - x_0_0 - 16 z_0_0_3 >= 1
 c331: cmax - x_0_3 + 6 z_0_0_3 >= 16
 c332: cmax - x_0_0 - 7 z_0_0_4 >= 1
 c333: cmax - x_0_4 + 6 z_0_0_4 >= 13
 c334: cmax - x_0_1 - 17 z_0_1_2 >= 5
 c335: cmax - x_0_2 + 15 z_0_1_2 >= 20
 c336: cmax - x_0_1 - 16 z_0_1_3 >= 5
 c337: cmax - x_0_3 + 15 z_0_1_3 >= 25
 c338: cmax - x_0_1 - 7 z_0_1_4 >= 5
 c339: cmax - x_0_4 + 15 z_0_1_4 >= 22
 c340: cmax - x_0_2 - 16 z_0_2_3 >= 5
 c341: cmax - x_0_3 + 17 z_0_2_3 >= 27
 c342: cmax - x_0_2 - 7 z_0_2_4 >= 5
 c343: cmax - x_0_4 + 17 z_0_2_4 >= 24
 c344: cmax - x_0_3 - 7 z_0_3_4 >= 10
 c345: cmax - x_0_4 + 16 z_0_3_4 >= 23
 c346: cmax - x_1_0 - 23 z_1_0_1 >= 3
 c347: cmax - x_1_1 + 5 z_1_0_1 >= 13
 c348: cmax - x_1_0 - 8 z_1_0_2 >= 3
 c349: cmax - x_1_2 + 5 z_1_0_2 >= 13
 c350: cmax - x_1_0 - 6 z_1_0_3 >= 3
 c351: cmax - x_1_3 + 5 z_1_0_3 >= 11
 c352: cmax - x_1_0 - 18 z_1_0_4 >= 3
 c353: cmax - x_1_4 + 5 z_1_0_4 >= 13
 c354: cmax - x_1_1 - 8 z_1_1_2 >= 8
 c355: cmax - x_1_2 + 23 z_1_1_2 >= 31
 c356: cmax - x_1_1 - 6 z_1_1_3 >= 8
 c357: cmax - x_1_3 + 23 z_1_1_3 >= 29
 c358: cmax - x_1_1 - 18 z_1_1_4 >= 8
 c359: cmax - x_1_4 + 23 z_1_1_4 >= 31
 c360: cmax - x_1_2 - 6 z_1_2_3 >= 8
 c361: cmax - x_1_3 + 8 z_1_2_3 >= 14
 c362: cmax - x_1_2 - 18 z_1_2_4 >= 8
 c363: cmax - x_1_4 + 8 z_1_2_4 >= 16
 c364: cmax - x_1_3 - 18 z_1_3_4 >= 6
 c365: cmax - x_1_4 + 6 z_1_3_4 >= 14
 c366: cmax - x_2_0 - 10 z_2_0_1 >= 2
 c367: cmax - x_2_1 + 2 z_2_0_1 >= 12
 c368: cmax - x_2_0 - 12 z_2_0_2 >= 2
 c369: cmax - x_2_2 + 2 z_2_0_2 >= 6
 c370: cmax - x_2_0 - 20 z_2_0_3 >= 2
 c371: cmax - x_2_3 + 2 z_2_0_3 >= 6
 c372: cmax - x_2_0 - 10 z_2_0_4 >= 2
 c373: cmax - x_2_4 + 2 z_2_0_4 >= 5
 c374: cmax - x_2_1 - 12 z_2_1_2 >= 10
 c375: cmax - x_2_2 + 10 z_2_1_2 >= 14
 c376: cmax - x_2_1 - 20 z_2_1_3 >= 10
 c377: cmax - x_2_3 + 10 z_2_1_3 >= 14
 c378: cmax - x_2_1 - 10 z_2_1_4 >= 10
 c379: cmax - x_2_4 + 10 z_2_1_4 >= 13
 c380: cmax - x_2_2 - 20 z_2_2_3 >= 4
 c381: cmax - x_2_3 + 12 z_2_2_3 >= 16
 c382: cmax - x_2_2 - 10 z_2_2_4 >= 4
 c383: cmax - x_2_4 + 12 z_2_2_4 >= 15
 c384: cmax - x_2_3 - 10 z_2_3_4 >= 4
 c385: cmax - x_2_4 + 20 z_2_3_4 >= 23
 c386: cmax - x_0_0 >= 6
 c387: cmax - x_0_1 >= 15
 c388: cmax - x_0_2 >= 17
 c389: cmax - x_0_3 >= 16
 c390: cmax - x_0_4 >= 7
 c391: cmax - x_1_0 >= 5
 c392: cmax - x_1_1 >= 23
 c393: cmax - x_1_2 >= 8
 c394: cmax - x_1_3 >= 6
 c395: cmax - x_1_4 >= 18
 c396: cmax - x_2_0 >= 2
 c397: cmax - x_2_1 >= 10
 c398: cmax - x_2_2 >= 12
 c399: cmax - x_2_3 >= 20
 c400: cmax - x_2_4 >= 10

Bounds
 0 <= z_0_0_1 <= 1
 0 <= z_0_0_2 <= 1
 0 <= z_0_0_3 <= 1
 0 <= z_0_0_4 <= 1
 0 <= z_0_1_2 <= 1
 0 <= z_0_1_3 <= 1
 0 <= z_0_1_4 <= 1
 0 <= z_0_2_3 <= 1
 0 <= z_0_2_4 <= 1
 0 <= z_0_3_4 <= 1
 0 <= z_1_0_1 <= 1
 0 <= z_1_0_2 <= 1
 0 <= z_1_0_3 <= 1
 0 <= z_1_0_4 <= 1
 0 <= z_1_1_2 <= 1
 0 <= z_1_1_3 <= 1
 0 <= z_1_1_4 <= 1
 0 <= z_1_2_3 <= 1
 0 <= z_1_2_4 <= 1
 0 <= z_1_3_4 <= 1
 0 <= z_2_0_1 <= 1
 0 <= z_2_0_2 <= 1
 0 <= z_2_0_3 <= 1
 0 <= z_2_0_4 <= 1
 0 <= z_2_1_2 <= 1
 0 <= z_2_1_3 <= 1
 0 <= z_2_1_4 <= 1
 0 <= z_2_2_3 <= 1
 0 <= z_2_2_4 <= 1
 0 <= z_2_3_4 <= 1
 23 <= cmax
       s_0_2_0_1 <= 1
       s_0_3_0_1 <= 1
       s_0_4_0_1 <= 1
       s_0_1_0_2 <= 1
       s_0_3_0_2 <= 1
       s_0_4_0_2 <= 1
       s_0_1_0_3 <= 1
       s_0_2_0_3 <= 1
       s_0_4_0_3 <= 1
       s_0_1_0_4 <= 1
       s_0_2_0_4 <= 1
       s_0_3_0_4 <= 1
       s_0_0_1_2 <= 1
       s_0_3_1_2 <= 1
       s_0_4_1_2 <= 1
       s_0_0_1_3 <= 1
       s_0_2_1_3 <= 1
       s_0_4_1_3 <= 1
       s_0_0_1_4 <= 1
       s_0_2_1_4 <= 1
       s_0_3_1_4 <= 1
       s_0_0_2_3 <= 1
       s_0_1_2_3 <= 1
       s_0_4_2_3 <= 1
       s_0_0_2_4 <= 1
       s_0_1_2_4 <= 1
       s_0_3_2_4 <= 1
       s_0_0_3_4 <= 1
       s_0_1_3_4 <= 1
       s_0_2_3_4 <= 1
       s_1_2_0_1 <= 1
       s_1_3_0_1 <= 1
       s_1_4_0_1 <= 1
       s_1_1_0_2 <= 1
       s_1_3_0_2 <= 1
       s_1_4_0_2 <= 1
       s_1_1_0_3 <= 1
       s_1_2_0_3 <= 1
       s_1_4_0_3 <= 1
       s_1_1_0_4 <= 1
       s_1_2_0_4 <= 1
       s_1_3_0_4 <= 1
       s_1_0_1_2 <= 1
       s_1_3_1_2 <= 1
       s_1_4_1_2 <= 1
       s_1_0_1_3 <= 1
       s_1_2_1_3 <= 1
       s_1_4_1_3 <= 1
       s_1_0_1_4 <= 1
       s_1_2_1_4 <= 1
       s_1_3_1_4 <= 1
       s_1_0_2_3 <= 1
       s_1_1_2_3 <= 1
       s_1_4_2_3 <= 1
       s_1_0_2_4 <= 1
       s_1_1_2_4 <= 1
       s_1_3_2_4 <= 1
       s_1_0_3_4 <= 1
       s_1_1_3_4 <= 1
       s_1_2_3_4 <= 1
       s_2_2_0_1 <= 1
       s_2_3_0_1 <= 1
       s_2_4_0_1 <= 1
       s_2_1_0_2 <= 1
       s_2_3_0_2 <= 1
       s_2_4_0_2 <= 1
       s_2_1_0_3 <= 1
       s_2_2_0_3 <= 1
       s_2_4_0_3 <= 1
       s_2_1_0_4 <= 1
       s_2_2_0_4 <= 1
       s_2_3_0_4 <= 1
       s_2_0_1_2 <= 1
       s_2_3_1_2 <= 1
       s_2_4_1_2 <= 1
       s_2_0_1_3 <= 1
       s_2_2_1_3 <= 1
       s_2_4_1_3 <= 1
       s_2_0_1_4 <= 1
       s_2_2_1_4 <= 1
       s_2_3_1_4 <= 1
       s_2_0_2_3 <= 1
       s_2_1_2_3 <= 1
       s_2_4_2_3 <= 1
       s_2_0_2_4 <= 1
       s_2_1_2_4 <= 1
       s_2_3_2_4 <= 1
       s_2_0_3_4 <= 1
       s_2_1_3_4 <= 1
       s_2_2_3_4 <= 1

Binaries
 z_0_0_1 z_0_0_2 z_0_0_3 z_0_0_4 z_0_1_2 z_0_1_3 z_0_1_4 z_0_2_3 z_0_2_4 z_0_3_4
 z_1_0_1 z_1_0_2 z_1_0_3 z_1_0_4 z_1_1_2 z_1_1_3 z_1_1_4 z_1_2_3 z_1_2_4 z_1_3_4
 z_2_0_1 z_2_0_2 z_2_0_3 z_2_0_4 z_2_1_2 z_2_1_3 z_2_1_4 z_2_2_3 z_2_2_4 z_2_3_4
End
